c File: flat30_3_0.col
c
c SOURCE: Joseph Culberson (joe@cs.ualberta.ca)
c DESCRIPTION: Quasi-random coloring problem
c              generated with flatness = 0
c                             probability = 0.200
c                             known coloring = 3
c                             random seed = 234726
c              Creation Date:  Fri Nov 29 22:02:06 1996
c Maximum degree = 6 Minimum degree = 1
c
c cnf created by edge2cnf
p cnf 90 300
-1 -2 0
-1 -3 0
-2 -3 0
1 2 3 0
-4 -5 0
-4 -6 0
-5 -6 0
4 5 6 0
-7 -8 0
-7 -9 0
-8 -9 0
7 8 9 0
-10 -11 0
-10 -12 0
-11 -12 0
10 11 12 0
-13 -14 0
-13 -15 0
-14 -15 0
13 14 15 0
-16 -17 0
-16 -18 0
-17 -18 0
16 17 18 0
-19 -20 0
-19 -21 0
-20 -21 0
19 20 21 0
-22 -23 0
-22 -24 0
-23 -24 0
22 23 24 0
-25 -26 0
-25 -27 0
-26 -27 0
25 26 27 0
-28 -29 0
-28 -30 0
-29 -30 0
28 29 30 0
-31 -32 0
-31 -33 0
-32 -33 0
31 32 33 0
-34 -35 0
-34 -36 0
-35 -36 0
34 35 36 0
-37 -38 0
-37 -39 0
-38 -39 0
37 38 39 0
-40 -41 0
-40 -42 0
-41 -42 0
40 41 42 0
-43 -44 0
-43 -45 0
-44 -45 0
43 44 45 0
-46 -47 0
-46 -48 0
-47 -48 0
46 47 48 0
-49 -50 0
-49 -51 0
-50 -51 0
49 50 51 0
-52 -53 0
-52 -54 0
-53 -54 0
52 53 54 0
-55 -56 0
-55 -57 0
-56 -57 0
55 56 57 0
-58 -59 0
-58 -60 0
-59 -60 0
58 59 60 0
-61 -62 0
-61 -63 0
-62 -63 0
61 62 63 0
-64 -65 0
-64 -66 0
-65 -66 0
64 65 66 0
-67 -68 0
-67 -69 0
-68 -69 0
67 68 69 0
-70 -71 0
-70 -72 0
-71 -72 0
70 71 72 0
-73 -74 0
-73 -75 0
-74 -75 0
73 74 75 0
-76 -77 0
-76 -78 0
-77 -78 0
76 77 78 0
-79 -80 0
-79 -81 0
-80 -81 0
79 80 81 0
-82 -83 0
-82 -84 0
-83 -84 0
82 83 84 0
-85 -86 0
-85 -87 0
-86 -87 0
85 86 87 0
-88 -89 0
-88 -90 0
-89 -90 0
88 89 90 0
-55 -1 0
-56 -2 0
-57 -3 0
-64 -1 0
-65 -2 0
-66 -3 0
-37 -4 0
-38 -5 0
-39 -6 0
-40 -4 0
-41 -5 0
-42 -6 0
-46 -4 0
-47 -5 0
-48 -6 0
-67 -4 0
-68 -5 0
-69 -6 0
-79 -4 0
-80 -5 0
-81 -6 0
-43 -7 0
-44 -8 0
-45 -9 0
-49 -7 0
-50 -8 0
-51 -9 0
-64 -7 0
-65 -8 0
-66 -9 0
-70 -7 0
-71 -8 0
-72 -9 0
-85 -7 0
-86 -8 0
-87 -9 0
-37 -10 0
-38 -11 0
-39 -12 0
-52 -10 0
-53 -11 0
-54 -12 0
-58 -10 0
-59 -11 0
-60 -12 0
-79 -10 0
-80 -11 0
-81 -12 0
-85 -10 0
-86 -11 0
-87 -12 0
-88 -10 0
-89 -11 0
-90 -12 0
-43 -13 0
-44 -14 0
-45 -15 0
-70 -13 0
-71 -14 0
-72 -15 0
-73 -13 0
-74 -14 0
-75 -15 0
-79 -13 0
-80 -14 0
-81 -15 0
-34 -16 0
-35 -17 0
-36 -18 0
-73 -16 0
-74 -17 0
-75 -18 0
-52 -19 0
-53 -20 0
-54 -21 0
-73 -19 0
-74 -20 0
-75 -21 0
-76 -19 0
-77 -20 0
-78 -21 0
-34 -22 0
-35 -23 0
-36 -24 0
-37 -22 0
-38 -23 0
-39 -24 0
-55 -22 0
-56 -23 0
-57 -24 0
-85 -22 0
-86 -23 0
-87 -24 0
-31 -25 0
-32 -26 0
-33 -27 0
-43 -25 0
-44 -26 0
-45 -27 0
-52 -25 0
-53 -26 0
-54 -27 0
-88 -25 0
-89 -26 0
-90 -27 0
-55 -28 0
-56 -29 0
-57 -30 0
-58 -28 0
-59 -29 0
-60 -30 0
-64 -28 0
-65 -29 0
-66 -30 0
-67 -28 0
-68 -29 0
-69 -30 0
-82 -28 0
-83 -29 0
-84 -30 0
-82 -31 0
-83 -32 0
-84 -33 0
-88 -31 0
-89 -32 0
-90 -33 0
-76 -34 0
-77 -35 0
-78 -36 0
-82 -34 0
-83 -35 0
-84 -36 0
-88 -34 0
-89 -35 0
-90 -36 0
-76 -37 0
-77 -38 0
-78 -39 0
-67 -40 0
-68 -41 0
-69 -42 0
-76 -40 0
-77 -41 0
-78 -42 0
-70 -46 0
-71 -47 0
-72 -48 0
-85 -46 0
-86 -47 0
-87 -48 0
-67 -49 0
-68 -50 0
-69 -51 0
-73 -49 0
-74 -50 0
-75 -51 0
-79 -49 0
-80 -50 0
-81 -51 0
-64 -52 0
-65 -53 0
-66 -54 0
-82 -52 0
-83 -53 0
-84 -54 0
-85 -52 0
-86 -53 0
-87 -54 0
-85 -55 0
-86 -56 0
-87 -57 0
-61 -58 0
-62 -59 0
-63 -60 0
-67 -58 0
-68 -59 0
-69 -60 0
-73 -58 0
-74 -59 0
-75 -60 0
